17	4	3
29	34	33	35	1	33	42	
0	0	0	0	0	5	8	10	6	3	4	3	2	3	4
9	4	6	9	8	5	10	1	5	6	7	2	16	17
10	2	3	6	10	1	10	1	1	7	1	3	5	7	10
6	3	7	8	8	2	10	4	10	5	10	2	6	17
6	5	1	7	4	9	9	7	7	10	6	3	8	12	13
200	7	10	6	7	3	4	3	3	9	6	2	15	17
75	10	10	9	4	6	4	5	7	8	10	2	9	17
250	2	4	7	3	3	8	10	3	8	7	2	17	17
125	8	6	3	1	3	9	7	7	9	1	3	11	14	17
200	6	10	10	4	7	7	10	3	3	9	1	16
250	2	4	2	8	8	6	3	1	8	2	1	17
125	1	6	6	7	6	4	5	1	10	2	1	17
10	4	7	10	8	1	2	9	1	5	7	1	17
5	5	1	1	9	7	8	6	3	4	4	2	16	17
10	10	6	1	7	4	1	1	3	3	4	1	17
6	1	4	6	6	2	1	9	4	2	6	1	17
0	0	0	0	0	5	8	9	9	9	8	0
